NAME : amz0118.119895_112395.tour
COMMENT : Cost = 119895_112395
COMMENT : Found by LKH-AMZ [Keld Helsgaun] Sun May 11 14:25:17 2025
COMMENT : TW viol.: 0 #: 0
TYPE : TOUR
DIMENSION : 171
TOUR_SECTION
18
5
60
29
168
35
84
22
148
150
31
62
42
2
107
78
90
26
38
120
159
30
158
104
47
152
41
75
36
115
54
85
114
48
160
98
86
105
124
99
87
149
121
141
146
39
63
163
27
139
128
89
125
133
55
117
155
162
147
11
123
28
96
16
6
106
92
3
83
69
109
51
45
1
57
44
77
71
102
154
140
34
7
8
46
21
32
143
65
17
166
79
171
10
103
53
110
61
68
20
126
91
134
122
170
157
156
131
58
94
80
164
67
9
169
95
59
113
14
19
33
167
132
142
12
129
25
13
4
136
118
116
111
76
37
74
130
23
66
56
52
72
151
145
161
138
73
64
119
100
43
70
49
97
108
82
93
112
88
165
135
144
101
127
137
153
24
81
40
50
15
-1
EOF
